sifdecoder -A pc64.lnx.gfo -st   GRIDNETC

 Problem name: GRIDNETC

 Double precision version will be formed

 The objective function uses 1 nonlinear group
 
 There are 3844 linear equality constraints
 
 There are 5043 free variables
 There are 2521 variables bounded only from below 
 
 
 File successfully decoded
 CUTEST: tools (double precision version) compiled successfully
 CUTEst: ipopt (double precision version) compiled successfully

******************************************************************************
This program contains Ipopt, a library for large-scale nonlinear optimization.
 Ipopt is released as open source code under the Eclipse Public License (EPL).
         For more information visit http://projects.coin-or.org/Ipopt
******************************************************************************

This is Ipopt version trunk, running with linear solver ma57.

Number of nonzeros in equality constraint Jacobian...:    15128
Number of nonzeros in inequality constraint Jacobian.:        0
Number of nonzeros in Lagrangian Hessian.............:     7564

Total number of variables............................:     7564
                     variables with only lower bounds:     2521
                variables with lower and upper bounds:        0
                     variables with only upper bounds:        0
Total number of equality constraints.................:     3844
Total number of inequality constraints...............:        0
        inequality constraints with only lower bounds:        0
   inequality constraints with lower and upper bounds:        0
        inequality constraints with only upper bounds:        0

iter    objective    inf_pr   inf_du lg(mu)  ||d||  lg(rg) alpha_du alpha_pr  ls
   0  6.7472329e+00 1.00e+01 9.40e-01  -1.0 0.00e+00    -  0.00e+00 0.00e+00   0
   1  7.0750387e+00 9.83e+00 9.65e-01  -1.0 9.62e+00    -  1.13e-02 1.73e-02f  1
   2  1.2764339e+01 8.77e+00 2.38e+00  -1.0 9.43e+00    -  2.99e-02 1.08e-01f  1
   3  1.3906550e+01 8.64e+00 6.27e+00  -1.0 7.81e+00    -  6.27e-02 1.43e-02f  1
   4  2.4870428e+01 7.79e+00 6.13e+00  -1.0 5.37e+00    -  3.43e-02 9.87e-02f  1
   5  2.0355888e+02 1.75e+00 8.89e+01  -1.0 4.89e+00    -  5.74e-02 7.75e-01f  1
   6  2.0842480e+02 2.26e-14 7.90e+00  -1.0 2.28e+00    -  3.31e-01 1.00e+00f  1
   7  2.2029444e+02 8.88e-16 4.54e+00  -1.0 1.29e+00    -  3.63e-01 1.00e+00f  1
   8  2.3427197e+02 2.11e-15 2.51e+00  -1.0 1.33e+00    -  5.03e-01 1.00e+00f  1
   9  2.4763820e+02 4.90e-09 7.07e-01  -1.0 1.38e+00    -  7.11e-01 1.00e+00f  1
iter    objective    inf_pr   inf_du lg(mu)  ||d||  lg(rg) alpha_du alpha_pr  ls
  10  1.9583711e+02 3.36e-08 7.68e-01  -1.7 1.45e+00    -  6.42e-01 1.00e+00f  1
  11  1.8472063e+02 6.25e-09 3.64e-01  -1.7 5.10e-01    -  7.59e-01 1.00e+00f  1
  12  1.8189806e+02 8.88e-16 2.00e-07  -1.7 1.81e-01    -  1.00e+00 1.00e+00f  1
  13  1.6880954e+02 3.25e-09 4.93e-01  -3.8 8.49e-01    -  4.76e-01 8.31e-01f  1
  14  1.6464551e+02 1.54e-09 4.86e-01  -3.8 3.48e-01    -  4.66e-01 8.59e-01f  1
  15  1.6289684e+02 4.05e-10 3.07e-01  -3.8 2.07e-01    -  5.28e-01 1.00e+00f  1
  16  1.6232197e+02 1.33e-15 1.26e-01  -3.8 1.25e-01    -  6.20e-01 1.00e+00f  1
  17  1.6211429e+02 8.88e-16 6.90e-02  -3.8 6.65e-02    -  5.85e-01 1.00e+00f  1
  18  1.6205580e+02 8.88e-16 1.50e-09  -3.8 2.86e-02    -  1.00e+00 1.00e+00f  1
  19  1.6190860e+02 8.88e-16 5.20e-03  -5.7 4.30e-02    -  7.94e-01 8.87e-01f  1
iter    objective    inf_pr   inf_du lg(mu)  ||d||  lg(rg) alpha_du alpha_pr  ls
  20  1.6188087e+02 4.44e-16 3.56e-04  -5.7 2.00e-02    -  8.83e-01 8.48e-01f  1
  21  1.6187385e+02 2.82e-12 1.02e-03  -5.7 1.11e-02    -  1.00e+00 8.99e-01f  1
  22  1.6187249e+02 1.07e-12 1.85e-11  -5.7 5.02e-03    -  1.00e+00 1.00e+00f  1
  23  1.6187066e+02 1.62e-13 1.18e-04  -8.6 3.79e-03    -  8.96e-01 8.49e-01f  1
  24  1.6187035e+02 2.55e-14 1.14e-04  -8.6 1.88e-03    -  9.84e-01 8.42e-01f  1
  25  1.6187029e+02 2.00e-15 3.21e-05  -8.6 9.87e-04    -  1.00e+00 9.23e-01f  1
  26  1.6187028e+02 1.78e-15 5.22e-14  -8.6 4.64e-04    -  1.00e+00 1.00e+00f  1
Reallocating memory for MA57: lfact (202451)
  27  1.6187028e+02 4.72e-15 3.64e-14  -9.0 2.07e-04    -  1.00e+00 1.00e+00f  1

Number of Iterations....: 27

                                   (scaled)                 (unscaled)
Objective...............:   1.6187028280011003e+02    1.6187028280011003e+02
Dual infeasibility......:   3.6422254101609042e-14    3.6422254101609042e-14
Constraint violation....:   4.7184478546569153e-15    4.7184478546569153e-15
Complementarity.........:   5.1891115441583398e-09    5.1891115441583398e-09
Overall NLP error.......:   5.1891115441583398e-09    5.1891115441583398e-09


Number of objective function evaluations             = 28
Number of objective gradient evaluations             = 28
Number of equality constraint evaluations            = 28
Number of inequality constraint evaluations          = 0
Number of equality constraint Jacobian evaluations   = 28
Number of inequality constraint Jacobian evaluations = 0
Number of Lagrangian Hessian evaluations             = 27
Total CPU secs in IPOPT (w/o function evaluations)   =      0.342
Total CPU secs in NLP function evaluations           =      0.034

EXIT: Optimal Solution Found.

************************ CUTEst statistics ************************


 Package used            :  IPOPT
 Problem                 :  GRIDNETC  
 # variables             =            7564
 # constraints           =            3844
 # objective functions   =        0.5700000E+02
 # objective gradients   =        0.2900000E+02
 # objective Hessians    =        0.2800000E+02
 # Hessian-vector prdct  =        0.0000000E+00
 # constraints functions =        0.5800000E+02
 # constraints gradients =        0.3000000E+02
 # constraints Hessians  =        0.2800000E+02
 Exit code               =               0
 Final f                 =        1.6187028280011003D+02
 Bounds feasibility      =        9.9634175909635303D-09
 Set up time             =            0.50 seconds
 Solve time              =            0.61 seconds


******************************************************************

